NAME : swiss42-C-5-1-c.1334.tour
COMMENT : Length = 1334
COMMENT : Found by LKH-3 [Keld Helsgaun] Tue Jul 30 13:14:05 2024
TYPE : TOUR
DIMENSION : 42
TOUR_SECTION
1
28
3
29
30
31
33
21
34
35
39
23
40
22
25
41
24
10
9
42
11
26
12
13
19
27
6
14
20
15
17
16
38
37
36
32
18
8
2
7
5
4
-1
EOF
